\ Model knapsack_40_10_3
\ LP format - for model browsing. Use MPS format to capture full model detail.
\ Signature: 0xcd583f2aa9f1c9c6
Minimize
  97.12 x[0] + 158.6 x[1] + 144.41 x[2] + 89.82 x[3] + 60.89 x[4]
   + 93.6 x[5] + 73.92 x[6] + 132.64 x[7] + 113.91 x[8] + 42.16 x[9]
   + 132.16 x[10] + 90.02 x[11] + 127.83 x[12] + 94.02 x[13] + 179.3 x[14]
   + 63 x[15] + 95.51 x[16] + 132.66 x[17] + 28.41 x[18] + 180.46 x[19]
   + 57.13 x[20] + 66.88 x[21] + 163.04 x[22] + 165.19 x[23] + 98.56 x[24]
   + 99.79 x[25] + 174.16 x[26] + 104.73 x[27] + 120.85 x[28] + 54.75 x[29]
   + 108.68 x[30] + 66 x[31] + 87.4 x[32] + 106.21 x[33] + 152.02 x[34]
   + 73.71 x[35] + 150.17 x[36] + 148.5 x[37] + 40.47 x[38] + 151.84 x[39]
   - 841 y[0] - 1066 y[1] - 1034 y[2] - 518 y[3] - 604 y[4] - 908 y[5]
   - 497 y[6] - 908 y[7] - 662 y[8] - 245 y[9] - 711 y[10] - 481 y[11]
   - 695 y[12] - 861 y[13] - 953 y[14] - 347 y[15] - 871 y[16] - 898 y[17]
   - 176 y[18] - 1034 y[19] - 509 y[20] - 515 y[21] - 905 y[22]
   - 1043 y[23] - 734 y[24] - 599 y[25] - 1090 y[26] - 530 y[27]
   - 782 y[28] - 459 y[29] - 978 y[30] - 332 y[31] - 719 y[32] - 666 y[33]
   - 910 y[34] - 562 y[35] - 923 y[36] - 1030 y[37] - 380 y[38] - 777 y[39]
Subject To
 primal_upper: 741 y[0] + 966 y[1] + 934 y[2] + 418 y[3] + 504 y[4]
   + 808 y[5] + 397 y[6] + 808 y[7] + 562 y[8] + 145 y[9] + 611 y[10]
   + 381 y[11] + 595 y[12] + 761 y[13] + 853 y[14] + 247 y[15] + 771 y[16]
   + 798 y[17] + 76 y[18] + 934 y[19] + 409 y[20] + 415 y[21] + 805 y[22]
   + 943 y[23] + 634 y[24] + 499 y[25] + 990 y[26] + 430 y[27] + 682 y[28]
   + 359 y[29] + 878 y[30] + 232 y[31] + 619 y[32] + 566 y[33] + 810 y[34]
   + 462 y[35] + 823 y[36] + 930 y[37] + 280 y[38] + 677 y[39] + 74 z[0]
   + 97 z[1] + 93 z[2] + 42 z[3] + 50 z[4] + 81 z[5] + 40 z[6] + 81 z[7]
   + 56 z[8] + 14 z[9] + 61 z[10] + 38 z[11] + 60 z[12] + 76 z[13]
   + 85 z[14] + 25 z[15] + 77 z[16] + 80 z[17] + 8 z[18] + 93 z[19]
   + 41 z[20] + 42 z[21] + 80 z[22] + 94 z[23] + 63 z[24] + 50 z[25]
   + 99 z[26] + 43 z[27] + 68 z[28] + 36 z[29] + 88 z[30] + 23 z[31]
   + 62 z[32] + 57 z[33] + 81 z[34] + 46 z[35] + 82 z[36] + 93 z[37]
   + 28 z[38] + 68 z[39] <= 6188
 primal_lower0: 803 u[0] + 669 u[1] + 7 u[2] + 494 u[3] + 485 u[4]
   + 151 u[5] + 526 u[6] + 211 u[7] + 495 u[8] + 977 u[9] + 765 u[10]
   + 704 u[11] + 656 u[12] + 889 u[13] + 47 u[14] + 499 u[15] + 168 u[16]
   + 638 u[17] + 141 u[18] + 514 u[19] + 167 u[20] + 910 u[21] + 134 u[22]
   + 586 u[23] + 559 u[24] + 234 u[25] + 783 u[26] + 921 u[27] + 88 u[28]
   + 334 u[29] + 32 u[30] + 963 u[31] + 936 u[32] + 437 u[33] + 531 u[34]
   + 193 u[35] + 828 u[36] + 578 u[37] + 529 u[38] + 705 u[39] <= 5071
 primal_lower1: 52 u[0] + 641 u[1] + 781 u[2] + 965 u[3] + 271 u[4]
   + 747 u[5] + 412 u[6] + 339 u[7] + 305 u[8] + 884 u[9] + 274 u[10]
   + 600 u[11] + 858 u[12] + 812 u[13] + 372 u[14] + 602 u[15] + 882 u[16]
   + 225 u[17] + 443 u[18] + 489 u[19] + 192 u[20] + 66 u[21] + 932 u[22]
   + 650 u[23] + 657 u[24] + 838 u[25] + 93 u[26] + 417 u[27] + 929 u[28]
   + 562 u[29] + 581 u[30] + 955 u[31] + 874 u[32] + 145 u[33] + 601 u[34]
   + 233 u[35] + 462 u[36] + 133 u[37] + 199 u[38] + 736 u[39] <= 965
 primal_lower2: 587 u[0] + 325 u[1] + 319 u[2] + 94 u[3] + 709 u[4]
   + 935 u[5] + 46 u[6] + 443 u[7] + 823 u[8] + 681 u[9] + 845 u[10]
   + 672 u[11] + 152 u[12] + 25 u[13] + 39 u[14] + 363 u[15] + 368 u[16]
   + 374 u[17] + 29 u[18] + 50 u[19] + 551 u[20] + 390 u[21] + 406 u[22]
   + 922 u[23] + 47 u[24] + 314 u[25] + 967 u[26] + 897 u[27] + 288 u[28]
   + 774 u[29] + 288 u[30] + 699 u[31] + 552 u[32] + 381 u[33] + 707 u[34]
   + 465 u[35] + 172 u[36] + 610 u[37] + 457 u[38] + 193 u[39] <= 4489
 primal_lower3: 334 u[0] + 539 u[1] + 687 u[2] + 727 u[3] + 665 u[4]
   + 117 u[5] + 422 u[6] + 965 u[7] + 723 u[8] + 198 u[9] + 748 u[10]
   + 82 u[11] + 4 u[12] + 918 u[13] + 790 u[14] + 980 u[15] + 268 u[16]
   + 179 u[17] + 445 u[18] + 171 u[19] + 178 u[20] + 548 u[21] + 190 u[22]
   + 996 u[23] + 451 u[24] + 224 u[25] + 623 u[26] + 219 u[27] + 75 u[28]
   + 908 u[29] + 335 u[30] + 725 u[31] + 484 u[32] + 835 u[33] + 915 u[34]
   + 307 u[35] + 976 u[36] + 167 u[37] + 57 u[38] + 50 u[39] <= 996
 primal_lower4: 947 u[0] + 20 u[1] + 668 u[2] + 824 u[3] + 342 u[4]
   + 510 u[5] + 819 u[6] + 950 u[7] + 224 u[8] + 687 u[9] + 905 u[10]
   + 947 u[11] + 345 u[12] + 247 u[13] + 259 u[14] + 285 u[15] + 289 u[16]
   + 116 u[17] + 938 u[18] + 572 u[19] + 991 u[20] + 141 u[21] + 755 u[22]
   + 525 u[23] + 912 u[24] + 425 u[25] + 444 u[26] + 140 u[27] + 48 u[28]
   + 629 u[29] + 476 u[30] + 926 u[31] + 433 u[32] + 828 u[33] + 552 u[34]
   + 788 u[35] + 485 u[36] + 912 u[37] + 406 u[38] + 723 u[39] <= 991
 primal_lower5: 136 u[0] + 589 u[1] + 321 u[2] + 145 u[3] + 131 u[4]
   + 15 u[5] + 576 u[6] + 319 u[7] + 349 u[8] + 752 u[9] + 294 u[10]
   + 788 u[11] + 598 u[12] + 664 u[13] + 392 u[14] + 510 u[15] + 758 u[16]
   + 69 u[17] + 143 u[18] + 253 u[19] + 708 u[20] + 14 u[21] + 992 u[22]
   + 590 u[23] + 629 u[24] + 546 u[25] + 281 u[26] + 469 u[27] + 885 u[28]
   + 950 u[29] + 305 u[30] + 951 u[31] + 614 u[32] + 789 u[33] + 589 u[34]
   + 565 u[35] + 34 u[36] + 553 u[37] + 867 u[38] + 324 u[39] <= 4864
 primal_lower6: 849 u[0] + 602 u[1] + 226 u[2] + 518 u[3] + 228 u[4]
   + 916 u[5] + 657 u[6] + 300 u[7] + 70 u[8] + 237 u[9] + 791 u[10]
   + 161 u[11] + 855 u[12] + 725 u[13] + 49 u[14] + 291 u[15] + 143 u[16]
   + 442 u[17] + 936 u[18] + 418 u[19] + 845 u[20] + 627 u[21] + 433 u[22]
   + 931 u[23] + 446 u[24] + 791 u[25] + 570 u[26] + 858 u[27] + 118 u[28]
   + 923 u[29] + 650 u[30] + 204 u[31] + 815 u[32] + 842 u[33] + 510 u[34]
   + 210 u[35] + 611 u[36] + 558 u[37] + 332 u[38] + 169 u[39] <= 5214
 primal_lower7: 569 u[0] + 315 u[1] + 357 u[2] + 340 u[3] + 787 u[4]
   + 197 u[5] + 580 u[6] + 601 u[7] + 805 u[8] + 807 u[9] + 875 u[10]
   + 390 u[11] + 862 u[12] + 719 u[13] + 669 u[14] + 417 u[15] + 886 u[16]
   + 620 u[17] + 91 u[18] + 992 u[19] + 349 u[20] + 556 u[21] + 332 u[22]
   + 280 u[23] + 669 u[24] + 304 u[25] + 821 u[26] + 359 u[27] + 950 u[28]
   + 828 u[29] + 598 u[30] + 753 u[31] + 150 u[32] + 195 u[33] + 337 u[34]
   + 559 u[35] + 410 u[36] + 80 u[37] + 167 u[38] + 991 u[39] <= 5391
 primal_lower8: 291 u[0] + 236 u[1] + 668 u[2] + 928 u[3] + 142 u[4]
   + 542 u[5] + 555 u[6] + 198 u[7] + 968 u[8] + 463 u[9] + 769 u[10]
   + 939 u[11] + 809 u[12] + 111 u[13] + 563 u[14] + 77 u[15] + 409 u[16]
   + 524 u[17] + 986 u[18] + 132 u[19] + 279 u[20] + 389 u[21] + 491 u[22]
   + 493 u[23] + 576 u[24] + 505 u[25] + 196 u[26] + 12 u[27] + 336 u[28]
   + 365 u[29] + 404 u[30] + 54 u[31] + 433 u[32] + 700 u[33] + 432 u[34]
   + 212 u[35] + 637 u[36] + 8 u[37] + 646 u[38] + 291 u[39] <= 4442
 primal_lower9: 405 u[0] + 727 u[1] + 281 u[2] + 992 u[3] + 503 u[4]
   + 137 u[5] + 376 u[6] + 637 u[7] + 449 u[8] + 827 u[9] + 647 u[10]
   + 170 u[11] + 634 u[12] + 819 u[13] + 361 u[14] + 445 u[15] + 58 u[16]
   + 552 u[17] + 751 u[18] + 652 u[19] + 497 u[20] + 752 u[21] + 16 u[22]
   + 716 u[23] + 769 u[24] + 436 u[25] + 993 u[26] + 763 u[27] + 810 u[28]
   + 952 u[29] + 178 u[30] + 701 u[31] + 362 u[32] + 679 u[33] + 773 u[34]
   + 99 u[35] + 750 u[36] + 284 u[37] + 603 u[38] + 331 u[39] <= 10943
 interdiction[0]: x[0] + u[0] <= 1
 interdiction[1]: x[1] + u[1] <= 1
 interdiction[2]: x[2] + u[2] <= 1
 interdiction[3]: x[3] + u[3] <= 1
 interdiction[4]: x[4] + u[4] <= 1
 interdiction[5]: x[5] + u[5] <= 1
 interdiction[6]: x[6] + u[6] <= 1
 interdiction[7]: x[7] + u[7] <= 1
 interdiction[8]: x[8] + u[8] <= 1
 interdiction[9]: x[9] + u[9] <= 1
 interdiction[10]: x[10] + u[10] <= 1
 interdiction[11]: x[11] + u[11] <= 1
 interdiction[12]: x[12] + u[12] <= 1
 interdiction[13]: x[13] + u[13] <= 1
 interdiction[14]: x[14] + u[14] <= 1
 interdiction[15]: x[15] + u[15] <= 1
 interdiction[16]: x[16] + u[16] <= 1
 interdiction[17]: x[17] + u[17] <= 1
 interdiction[18]: x[18] + u[18] <= 1
 interdiction[19]: x[19] + u[19] <= 1
 interdiction[20]: x[20] + u[20] <= 1
 interdiction[21]: x[21] + u[21] <= 1
 interdiction[22]: x[22] + u[22] <= 1
 interdiction[23]: x[23] + u[23] <= 1
 interdiction[24]: x[24] + u[24] <= 1
 interdiction[25]: x[25] + u[25] <= 1
 interdiction[26]: x[26] + u[26] <= 1
 interdiction[27]: x[27] + u[27] <= 1
 interdiction[28]: x[28] + u[28] <= 1
 interdiction[29]: x[29] + u[29] <= 1
 interdiction[30]: x[30] + u[30] <= 1
 interdiction[31]: x[31] + u[31] <= 1
 interdiction[32]: x[32] + u[32] <= 1
 interdiction[33]: x[33] + u[33] <= 1
 interdiction[34]: x[34] + u[34] <= 1
 interdiction[35]: x[35] + u[35] <= 1
 interdiction[36]: x[36] + u[36] <= 1
 interdiction[37]: x[37] + u[37] <= 1
 interdiction[38]: x[38] + u[38] <= 1
 interdiction[39]: x[39] + u[39] <= 1
 mccormick1[0]: - u[0] + z[0] <= 0
 mccormick1[1]: - u[1] + z[1] <= 0
 mccormick1[2]: - u[2] + z[2] <= 0
 mccormick1[3]: - u[3] + z[3] <= 0
 mccormick1[4]: - u[4] + z[4] <= 0
 mccormick1[5]: - u[5] + z[5] <= 0
 mccormick1[6]: - u[6] + z[6] <= 0
 mccormick1[7]: - u[7] + z[7] <= 0
 mccormick1[8]: - u[8] + z[8] <= 0
 mccormick1[9]: - u[9] + z[9] <= 0
 mccormick1[10]: - u[10] + z[10] <= 0
 mccormick1[11]: - u[11] + z[11] <= 0
 mccormick1[12]: - u[12] + z[12] <= 0
 mccormick1[13]: - u[13] + z[13] <= 0
 mccormick1[14]: - u[14] + z[14] <= 0
 mccormick1[15]: - u[15] + z[15] <= 0
 mccormick1[16]: - u[16] + z[16] <= 0
 mccormick1[17]: - u[17] + z[17] <= 0
 mccormick1[18]: - u[18] + z[18] <= 0
 mccormick1[19]: - u[19] + z[19] <= 0
 mccormick1[20]: - u[20] + z[20] <= 0
 mccormick1[21]: - u[21] + z[21] <= 0
 mccormick1[22]: - u[22] + z[22] <= 0
 mccormick1[23]: - u[23] + z[23] <= 0
 mccormick1[24]: - u[24] + z[24] <= 0
 mccormick1[25]: - u[25] + z[25] <= 0
 mccormick1[26]: - u[26] + z[26] <= 0
 mccormick1[27]: - u[27] + z[27] <= 0
 mccormick1[28]: - u[28] + z[28] <= 0
 mccormick1[29]: - u[29] + z[29] <= 0
 mccormick1[30]: - u[30] + z[30] <= 0
 mccormick1[31]: - u[31] + z[31] <= 0
 mccormick1[32]: - u[32] + z[32] <= 0
 mccormick1[33]: - u[33] + z[33] <= 0
 mccormick1[34]: - u[34] + z[34] <= 0
 mccormick1[35]: - u[35] + z[35] <= 0
 mccormick1[36]: - u[36] + z[36] <= 0
 mccormick1[37]: - u[37] + z[37] <= 0
 mccormick1[38]: - u[38] + z[38] <= 0
 mccormick1[39]: - u[39] + z[39] <= 0
 mccormick2[0]: - y[0] + z[0] <= 0
 mccormick2[1]: - y[1] + z[1] <= 0
 mccormick2[2]: - y[2] + z[2] <= 0
 mccormick2[3]: - y[3] + z[3] <= 0
 mccormick2[4]: - y[4] + z[4] <= 0
 mccormick2[5]: - y[5] + z[5] <= 0
 mccormick2[6]: - y[6] + z[6] <= 0
 mccormick2[7]: - y[7] + z[7] <= 0
 mccormick2[8]: - y[8] + z[8] <= 0
 mccormick2[9]: - y[9] + z[9] <= 0
 mccormick2[10]: - y[10] + z[10] <= 0
 mccormick2[11]: - y[11] + z[11] <= 0
 mccormick2[12]: - y[12] + z[12] <= 0
 mccormick2[13]: - y[13] + z[13] <= 0
 mccormick2[14]: - y[14] + z[14] <= 0
 mccormick2[15]: - y[15] + z[15] <= 0
 mccormick2[16]: - y[16] + z[16] <= 0
 mccormick2[17]: - y[17] + z[17] <= 0
 mccormick2[18]: - y[18] + z[18] <= 0
 mccormick2[19]: - y[19] + z[19] <= 0
 mccormick2[20]: - y[20] + z[20] <= 0
 mccormick2[21]: - y[21] + z[21] <= 0
 mccormick2[22]: - y[22] + z[22] <= 0
 mccormick2[23]: - y[23] + z[23] <= 0
 mccormick2[24]: - y[24] + z[24] <= 0
 mccormick2[25]: - y[25] + z[25] <= 0
 mccormick2[26]: - y[26] + z[26] <= 0
 mccormick2[27]: - y[27] + z[27] <= 0
 mccormick2[28]: - y[28] + z[28] <= 0
 mccormick2[29]: - y[29] + z[29] <= 0
 mccormick2[30]: - y[30] + z[30] <= 0
 mccormick2[31]: - y[31] + z[31] <= 0
 mccormick2[32]: - y[32] + z[32] <= 0
 mccormick2[33]: - y[33] + z[33] <= 0
 mccormick2[34]: - y[34] + z[34] <= 0
 mccormick2[35]: - y[35] + z[35] <= 0
 mccormick2[36]: - y[36] + z[36] <= 0
 mccormick2[37]: - y[37] + z[37] <= 0
 mccormick2[38]: - y[38] + z[38] <= 0
 mccormick2[39]: - y[39] + z[39] <= 0
 mccormick3[0]: y[0] + u[0] - z[0] <= 1
 mccormick3[1]: y[1] + u[1] - z[1] <= 1
 mccormick3[2]: y[2] + u[2] - z[2] <= 1
 mccormick3[3]: y[3] + u[3] - z[3] <= 1
 mccormick3[4]: y[4] + u[4] - z[4] <= 1
 mccormick3[5]: y[5] + u[5] - z[5] <= 1
 mccormick3[6]: y[6] + u[6] - z[6] <= 1
 mccormick3[7]: y[7] + u[7] - z[7] <= 1
 mccormick3[8]: y[8] + u[8] - z[8] <= 1
 mccormick3[9]: y[9] + u[9] - z[9] <= 1
 mccormick3[10]: y[10] + u[10] - z[10] <= 1
 mccormick3[11]: y[11] + u[11] - z[11] <= 1
 mccormick3[12]: y[12] + u[12] - z[12] <= 1
 mccormick3[13]: y[13] + u[13] - z[13] <= 1
 mccormick3[14]: y[14] + u[14] - z[14] <= 1
 mccormick3[15]: y[15] + u[15] - z[15] <= 1
 mccormick3[16]: y[16] + u[16] - z[16] <= 1
 mccormick3[17]: y[17] + u[17] - z[17] <= 1
 mccormick3[18]: y[18] + u[18] - z[18] <= 1
 mccormick3[19]: y[19] + u[19] - z[19] <= 1
 mccormick3[20]: y[20] + u[20] - z[20] <= 1
 mccormick3[21]: y[21] + u[21] - z[21] <= 1
 mccormick3[22]: y[22] + u[22] - z[22] <= 1
 mccormick3[23]: y[23] + u[23] - z[23] <= 1
 mccormick3[24]: y[24] + u[24] - z[24] <= 1
 mccormick3[25]: y[25] + u[25] - z[25] <= 1
 mccormick3[26]: y[26] + u[26] - z[26] <= 1
 mccormick3[27]: y[27] + u[27] - z[27] <= 1
 mccormick3[28]: y[28] + u[28] - z[28] <= 1
 mccormick3[29]: y[29] + u[29] - z[29] <= 1
 mccormick3[30]: y[30] + u[30] - z[30] <= 1
 mccormick3[31]: y[31] + u[31] - z[31] <= 1
 mccormick3[32]: y[32] + u[32] - z[32] <= 1
 mccormick3[33]: y[33] + u[33] - z[33] <= 1
 mccormick3[34]: y[34] + u[34] - z[34] <= 1
 mccormick3[35]: y[35] + u[35] - z[35] <= 1
 mccormick3[36]: y[36] + u[36] - z[36] <= 1
 mccormick3[37]: y[37] + u[37] - z[37] <= 1
 mccormick3[38]: y[38] + u[38] - z[38] <= 1
 mccormick3[39]: y[39] + u[39] - z[39] <= 1
Bounds
Binaries
 x[0] x[1] x[2] x[3] x[4] x[5] x[6] x[7] x[8] x[9] x[10] x[11] x[12] x[13]
 x[14] x[15] x[16] x[17] x[18] x[19] x[20] x[21] x[22] x[23] x[24] x[25]
 x[26] x[27] x[28] x[29] x[30] x[31] x[32] x[33] x[34] x[35] x[36] x[37]
 x[38] x[39] y[0] y[1] y[2] y[3] y[4] y[5] y[6] y[7] y[8] y[9] y[10] y[11]
 y[12] y[13] y[14] y[15] y[16] y[17] y[18] y[19] y[20] y[21] y[22] y[23]
 y[24] y[25] y[26] y[27] y[28] y[29] y[30] y[31] y[32] y[33] y[34] y[35]
 y[36] y[37] y[38] y[39] u[0] u[1] u[2] u[3] u[4] u[5] u[6] u[7] u[8] u[9]
 u[10] u[11] u[12] u[13] u[14] u[15] u[16] u[17] u[18] u[19] u[20] u[21]
 u[22] u[23] u[24] u[25] u[26] u[27] u[28] u[29] u[30] u[31] u[32] u[33]
 u[34] u[35] u[36] u[37] u[38] u[39] z[0] z[1] z[2] z[3] z[4] z[5] z[6]
 z[7] z[8] z[9] z[10] z[11] z[12] z[13] z[14] z[15] z[16] z[17] z[18] z[19]
 z[20] z[21] z[22] z[23] z[24] z[25] z[26] z[27] z[28] z[29] z[30] z[31]
 z[32] z[33] z[34] z[35] z[36] z[37] z[38] z[39]
End
